velocity      all create $temp $v_seed
fix           fxnve  all nve
fix           fxlange all langevin $temp $temp $langevin_damp $langevin_seed

compute rg all gyration

thermo        $save
thermo_style  custom step pe ke temp c_rg
thermo_modify flush yes

dump          atom_file all atom $save $lammps_dump
dump_modify   atom_file flush yes

dump          dcd_file all dcd $save $dcd_dump
dump_modify   dcd_file flush yes unwrap yes

restart $restart rst.1 rst.2
run           $t