units       real
dimension   3
boundary    p p p
atom_style  full

bond_style  harmonic
pair_style  $pair_potential $pair_parameters
dielectric  $water_perm

read_data   data.data

bond_coeff          1     9.600     3.8

$pair_coeff

special_bonds fene
neighbor  3.5 multi
neigh_modify  every 10 delay 0

comm_style    tiled
timestep      $dt

