# Multiprotein complexes

units       real
dimension   3
boundary    p p p
atom_style  full

bond_style  harmonic
#pair_style  ljlambda 0.1 0.0 35.0
pair_style  kh/cut/coul/debye 0.1 0.0 35.0
dielectric  80.0

read_data   A-syn_KH.data

# pairwise coefficients

bond_coeff          1     9.600     3.8

pair_coeff          *       *       0.000000   0.000   0.000   0.000
pair_coeff          1       1      -0.512494   6.180  18.540   0.000
pair_coeff          1       2      -0.121754   5.880  17.640   0.000
pair_coeff          1       3      -0.493565   6.020  18.060   0.000
pair_coeff          1       4      -0.661218   6.270  18.810   0.000
pair_coeff          1       5      -0.109586   6.270  18.810   0.000
pair_coeff          1       6      -0.232622   5.340  16.020   0.000
pair_coeff          1       7      -0.640938   6.180  18.540   0.000
pair_coeff          1       8      -0.183948   5.680  17.040   0.000
pair_coeff          1       9      -0.306984   5.610  16.830   0.000
pair_coeff          1      10      -0.165020   6.050  18.150   0.000
pair_coeff          1      11      -0.248846   5.900  17.700   0.000
pair_coeff          1      12      -0.220453   6.100  18.300   0.000
pair_coeff          1      13      -0.438132   6.320  18.960   0.000
pair_coeff          1      14      -0.312392   6.130  18.390   0.000
pair_coeff          1      15      -0.173132   5.930  17.790   0.000
pair_coeff          1      16      -0.588208   6.180  18.540   0.000
pair_coeff          1      17      -0.240734   5.870  17.610   0.000
pair_coeff          2       2       0.062123   5.580  16.740  35.000
pair_coeff          2       3      -0.109586   5.720  17.160   0.000
pair_coeff          2       4      -0.244790   5.970  17.910   0.000
pair_coeff          2       5      -0.001423   5.970  17.910  35.000
pair_coeff          2       6       0.010746   5.040  15.120   0.000
pair_coeff          2       7      -0.233974   5.880  17.640   0.000
pair_coeff          2       8       0.005337   5.380  16.140   0.000
pair_coeff          2       9      -0.004127   5.310  15.930   0.000
pair_coeff          2      10       0.087812   5.750  17.250  35.000
pair_coeff          2      11      -0.017647   5.600  16.800   0.000
pair_coeff          2      12       0.028322   5.800  17.400   0.000
pair_coeff          2      13      -0.147443   6.020  18.060   0.000
pair_coeff          2      14      -0.087953   5.830  17.490  35.000
pair_coeff          2      15      -0.001423   5.630  16.890   0.000
pair_coeff          2      16      -0.202877   5.880  17.640   0.000
pair_coeff          2      17       0.045899   5.570  16.710   0.000
pair_coeff          3       3      -0.520606   5.860  17.580   0.000
pair_coeff          3       4      -0.624713   6.110  18.330   0.000
pair_coeff          3       5      -0.110938   6.110  18.330   0.000
pair_coeff          3       6      -0.231269   5.180  15.540   0.000
pair_coeff          3       7      -0.650402   6.020  18.060   0.000
pair_coeff          3       8      -0.186652   5.520  16.560   0.000
pair_coeff          3       9      -0.320504   5.450  16.350   0.000
pair_coeff          3      10      -0.135275   5.890  17.670   0.000
pair_coeff          3      11      -0.242086   5.740  17.220   0.000
pair_coeff          3      12      -0.189356   5.940  17.820   0.000
pair_coeff          3      13      -0.398923   6.160  18.480   0.000
pair_coeff          3      14      -0.258310   5.970  17.910   0.000
pair_coeff          3      15      -0.156907   5.770  17.310   0.000
pair_coeff          3      16      -0.592264   6.020  18.060   0.000
pair_coeff          3      17      -0.223157   5.710  17.130   0.000
pair_coeff          4       4      -0.755861   6.360  19.080   0.000
pair_coeff          4       5      -0.228565   6.360  19.080   0.000
pair_coeff          4       6      -0.332673   5.430  16.290   0.000
pair_coeff          4       7      -0.758565   6.270  18.810   0.000
pair_coeff          4       8      -0.317800   5.770  17.310   0.000
pair_coeff          4       9      -0.424611   5.700  17.100   0.000
pair_coeff          4      10      -0.255606   6.140  18.420   0.000
pair_coeff          4      11      -0.352953   5.990  17.970   0.000
pair_coeff          4      12      -0.328616   6.190  18.570   0.000
pair_coeff          4      13      -0.539535   6.410  19.230   0.000
pair_coeff          4      14      -0.419203   6.220  18.660   0.000
pair_coeff          4      15      -0.281295   6.020  18.060   0.000
pair_coeff          4      16      -0.699075   6.270  18.810   0.000
pair_coeff          4      17      -0.348897   5.960  17.880   0.000
pair_coeff          5       5       0.209496   6.360  19.080  35.000
pair_coeff          5       6       0.070235   5.430  16.290   0.000
pair_coeff          5       7      -0.229917   6.270  18.810   0.000
pair_coeff          5       8       0.083756   5.770  17.310   0.000
pair_coeff          5       9       0.048603   5.700  17.100   0.000
pair_coeff          5      10      -0.017647   6.140  18.420  35.000
pair_coeff          5      11       0.048603   5.990  17.970   0.000
pair_coeff          5      12       0.051307   6.190  18.570   0.000
pair_coeff          5      13      -0.125810   6.410  19.230   0.000
pair_coeff          5      14       0.043195   6.220  18.660  35.000
pair_coeff          5      15       0.062123   6.020  18.060   0.000
pair_coeff          5      16      -0.181244   6.270  18.810   0.000
pair_coeff          5      17       0.094572   5.960  17.880   0.000
pair_coeff          6       6      -0.077137   4.500  13.500   0.000
pair_coeff          6       7      -0.336729   5.340  16.020   0.000
pair_coeff          6       8      -0.020351   4.840  14.520   0.000
pair_coeff          6       9      -0.086601   4.770  14.310   0.000
pair_coeff          6      10       0.060771   5.210  15.630   0.000
pair_coeff          6      11      -0.055504   5.060  15.180   0.000
pair_coeff          6      12       0.001281   5.260  15.780   0.000
pair_coeff          6      13      -0.181244   5.480  16.440   0.000
pair_coeff          6      14      -0.064969   5.290  15.870   0.000
pair_coeff          6      15      -0.009535   5.090  15.270   0.000
pair_coeff          6      16      -0.285351   5.340  16.020   0.000
pair_coeff          6      17      -0.027111   5.030  15.090   0.000
pair_coeff          7       7      -0.770733   6.180  18.540   0.000
pair_coeff          7       8      -0.304280   5.680  17.040   0.000
pair_coeff          7       9      -0.438132   5.610  16.830   0.000
pair_coeff          7      10      -0.259662   6.050  18.150   0.000
pair_coeff          7      11      -0.361065   5.900  17.700   0.000
pair_coeff          7      12      -0.320504   6.100  18.300   0.000
pair_coeff          7      13      -0.540887   6.320  18.960   0.000
pair_coeff          7      14      -0.388106   6.130  18.390   0.000
pair_coeff          7      15      -0.279943   5.930  17.790   0.000
pair_coeff          7      16      -0.726116   6.180  18.540   0.000
pair_coeff          7      17      -0.342137   5.870  17.610   0.000
pair_coeff          8       8       0.000100   5.180  15.540   0.000
pair_coeff          8       9      -0.046040   5.110  15.330   0.000
pair_coeff          8      10       0.025618   5.550  16.650   0.000
pair_coeff          8      11      -0.039280   5.400  16.200   0.000
pair_coeff          8      12       0.024266   5.600  16.800   0.000
pair_coeff          8      13      -0.150147   5.820  17.460   0.000
pair_coeff          8      14      -0.059560   5.630  16.890   0.000
pair_coeff          8      15       0.012098   5.430  16.290   0.000
pair_coeff          8      16      -0.250198   5.680  17.040   0.000
pair_coeff          8      17       0.013450   5.370  16.110   0.000
pair_coeff          9       9      -0.142035   5.040  15.120   0.000
pair_coeff          9      10       0.021562   5.480  16.440   0.000
pair_coeff          9      11      -0.087953   5.330  15.990   0.000
pair_coeff          9      12      -0.029816   5.530  16.590   0.000
pair_coeff          9      13      -0.228565   5.750  17.250   0.000
pair_coeff          9      14      -0.100122   5.560  16.680   0.000
pair_coeff          9      15      -0.023055   5.360  16.080   0.000
pair_coeff          9      16      -0.393514   5.610  16.830   0.000
pair_coeff          9      17      -0.048744   5.300  15.900   0.000
pair_coeff         10      10       0.102684   5.920  17.760  35.000
pair_coeff         10      11      -0.009535   5.770  17.310   0.000
pair_coeff         10      12       0.033730   5.970  17.910   0.000
pair_coeff         10      13      -0.151499   6.190  18.570   0.000
pair_coeff         10      14      -0.064969   6.000  18.000  35.000
pair_coeff         10      15       0.021562   5.800  17.400   0.000
pair_coeff         10      16      -0.216397   6.050  18.150   0.000
pair_coeff         10      17       0.055363   5.740  17.220   0.000
pair_coeff         11      11      -0.060912   5.620  16.860   0.000
pair_coeff         11      12      -0.031168   5.820  17.460   0.000
pair_coeff         11      13      -0.181244   6.040  18.120   0.000
pair_coeff         11      14      -0.101474   5.850  17.550   0.000
pair_coeff         11      15      -0.028464   5.650  16.950   0.000
pair_coeff         11      16      -0.319152   5.900  17.700   0.000
pair_coeff         11      17      -0.031168   5.590  16.770   0.000
pair_coeff         12      12       0.017506   6.020  18.060   0.000
pair_coeff         12      13      -0.175836   6.240  18.720   0.000
pair_coeff         12      14      -0.041984   6.050  18.150   0.000
pair_coeff         12      15      -0.005479   5.850  17.550   0.000
pair_coeff         12      16      -0.270479   6.100  18.300   0.000
pair_coeff         12      17      -0.008183   5.790  17.370   0.000
pair_coeff         13      13      -0.338081   6.460  19.380   0.000
pair_coeff         13      14      -0.250198   6.270  18.810   0.000
pair_coeff         13      15      -0.147443   6.070  18.210   0.000
pair_coeff         13      16      -0.484101   6.320  18.960   0.000
pair_coeff         13      17      -0.205581   6.010  18.030   0.000
pair_coeff         14      14      -0.186652   6.080  18.240  35.000
pair_coeff         14      15      -0.055504   5.880  17.640   0.000
pair_coeff         14      16      -0.334025   6.130  18.390   0.000
pair_coeff         14      17      -0.078489   5.820  17.460   0.000
pair_coeff         15      15      -0.001423   5.680  17.040   0.000
pair_coeff         15      16      -0.212341   5.930  17.790   0.000
pair_coeff         15      17       0.018858   5.620  16.860   0.000
pair_coeff         16      16      -0.658514   6.180  18.540   0.000
pair_coeff         16      17      -0.282647   5.870  17.610   0.000
pair_coeff         17      17      -0.010887   5.560  16.680   0.000

special_bonds fene
neighbor  3.5 multi
neigh_modify  every 10 delay 0

comm_style    tiled
timestep      10.0

velocity      all create 300 494211
fix           fxnve  all nve
#fix           fxnpt all npt temp 150.0 150.0 500.0 iso 1.0 1.0 5000.0
fix           fxlange all langevin 300 300 10000 451618

thermo        1000
thermo_style  custom step pe ke temp
thermo_modify flush yes

dump          VMD1 all xtc 1000 A-syn_KH.300.xtc
restart       20000000 restart_KH_1.tmp restart_KH_2.tmp
run           20000000
