# Multiprotein complexes

units       real
dimension   3
boundary    p p p
atom_style  full

bond_style  harmonic
pair_style  ljlambda 0.205 0.0 35.0
dielectric  80.0

read_data   hps.data

# pairwise coefficients

bond_coeff          1     9.600     3.8

pair_coeff          1       1       0.200000   5.040    0.000000  15.120   0.000
pair_coeff          1       2       0.200000   5.800    0.000000  17.400   0.000
pair_coeff          1       3       0.200000   5.360    0.000000  16.080   0.000
pair_coeff          1       4       0.200000   5.310    0.000000  15.930   0.000
pair_coeff          1       5       0.200000   5.260    0.000000  15.780   0.000
pair_coeff          1       6       0.200000   5.480    0.000000  16.440   0.000
pair_coeff          1       7       0.200000   5.530    0.000000  16.590   0.000
pair_coeff          1       8       0.200000   4.770    0.000000  14.310   0.000
pair_coeff          1       9       0.200000   5.560    0.000000  16.680   0.000
pair_coeff          1      10       0.200000   5.610    0.000000  16.830   0.000
pair_coeff          1      11       0.200000   5.610    0.000000  16.830   0.000
pair_coeff          1      12       0.200000   5.700    0.000000  17.100   0.000
pair_coeff          1      13       0.200000   5.610    0.000000  16.830   0.000
pair_coeff          1      14       0.200000   5.700    0.000000  17.100   0.000
pair_coeff          1      15       0.200000   5.300    0.000000  15.900   0.000
pair_coeff          1      16       0.200000   5.110    0.000000  15.330   0.000
pair_coeff          1      17       0.200000   5.330    0.000000  15.990   0.000
pair_coeff          1      18       0.200000   5.910    0.000000  17.730   0.000
pair_coeff          1      19       0.200000   5.750    0.000000  17.250   0.000
pair_coeff          1      20       0.200000   5.450    0.000000  16.350   0.000
pair_coeff          2       2       0.200000   6.560    0.000000  19.680  35.000
pair_coeff          2       3       0.200000   6.120    0.000000  18.360   0.000
pair_coeff          2       4       0.200000   6.070    0.000000  18.210  35.000
pair_coeff          2       5       0.200000   6.020    0.000000  18.060   0.000
pair_coeff          2       6       0.200000   6.240    0.000000  18.720  35.000
pair_coeff          2       7       0.200000   6.290    0.000000  18.870   0.000
pair_coeff          2       8       0.200000   5.530    0.000000  16.590   0.000
pair_coeff          2       9       0.200000   6.320    0.000000  18.960  35.000
pair_coeff          2      10       0.200000   6.370    0.000000  19.110   0.000
pair_coeff          2      11       0.200000   6.370    0.000000  19.110   0.000
pair_coeff          2      12       0.200000   6.460    0.000000  19.380  35.000
pair_coeff          2      13       0.200000   6.370    0.000000  19.110   0.000
pair_coeff          2      14       0.200000   6.460    0.000000  19.380   0.000
pair_coeff          2      15       0.200000   6.060    0.000000  18.180   0.000
pair_coeff          2      16       0.200000   5.870    0.000000  17.610   0.000
pair_coeff          2      17       0.200000   6.090    0.000000  18.270   0.000
pair_coeff          2      18       0.200000   6.670    0.000000  20.010   0.000
pair_coeff          2      19       0.200000   6.510    0.000000  19.530   0.000
pair_coeff          2      20       0.200000   6.210    0.000000  18.630   0.000
pair_coeff          3       3       0.200000   5.680    0.000000  17.040   0.000
pair_coeff          3       4       0.200000   5.630    0.000000  16.890   0.000
pair_coeff          3       5       0.200000   5.580    0.000000  16.740   0.000
pair_coeff          3       6       0.200000   5.800    0.000000  17.400   0.000
pair_coeff          3       7       0.200000   5.850    0.000000  17.550   0.000
pair_coeff          3       8       0.200000   5.090    0.000000  15.270   0.000
pair_coeff          3       9       0.200000   5.880    0.000000  17.640   0.000
pair_coeff          3      10       0.200000   5.930    0.000000  17.790   0.000
pair_coeff          3      11       0.200000   5.930    0.000000  17.790   0.000
pair_coeff          3      12       0.200000   6.020    0.000000  18.060   0.000
pair_coeff          3      13       0.200000   5.930    0.000000  17.790   0.000
pair_coeff          3      14       0.200000   6.020    0.000000  18.060   0.000
pair_coeff          3      15       0.200000   5.620    0.000000  16.860   0.000
pair_coeff          3      16       0.200000   5.430    0.000000  16.290   0.000
pair_coeff          3      17       0.200000   5.650    0.000000  16.950   0.000
pair_coeff          3      18       0.200000   6.230    0.000000  18.690   0.000
pair_coeff          3      19       0.200000   6.070    0.000000  18.210   0.000
pair_coeff          3      20       0.200000   5.770    0.000000  17.310   0.000
pair_coeff          4       4       0.200000   5.580    0.000000  16.740  35.000
pair_coeff          4       5       0.200000   5.530    0.000000  16.590   0.000
pair_coeff          4       6       0.200000   5.750    0.000000  17.250  35.000
pair_coeff          4       7       0.200000   5.800    0.000000  17.400   0.000
pair_coeff          4       8       0.200000   5.040    0.000000  15.120   0.000
pair_coeff          4       9       0.200000   5.830    0.000000  17.490  35.000
pair_coeff          4      10       0.200000   5.880    0.000000  17.640   0.000
pair_coeff          4      11       0.200000   5.880    0.000000  17.640   0.000
pair_coeff          4      12       0.200000   5.970    0.000000  17.910  35.000
pair_coeff          4      13       0.200000   5.880    0.000000  17.640   0.000
pair_coeff          4      14       0.200000   5.970    0.000000  17.910   0.000
pair_coeff          4      15       0.200000   5.570    0.000000  16.710   0.000
pair_coeff          4      16       0.200000   5.380    0.000000  16.140   0.000
pair_coeff          4      17       0.200000   5.600    0.000000  16.800   0.000
pair_coeff          4      18       0.200000   6.180    0.000000  18.540   0.000
pair_coeff          4      19       0.200000   6.020    0.000000  18.060   0.000
pair_coeff          4      20       0.200000   5.720    0.000000  17.160   0.000
pair_coeff          5       5       0.200000   5.480    0.000000  16.440   0.000
pair_coeff          5       6       0.200000   5.700    0.000000  17.100   0.000
pair_coeff          5       7       0.200000   5.750    0.000000  17.250   0.000
pair_coeff          5       8       0.200000   4.990    0.000000  14.970   0.000
pair_coeff          5       9       0.200000   5.780    0.000000  17.340   0.000
pair_coeff          5      10       0.200000   5.830    0.000000  17.490   0.000
pair_coeff          5      11       0.200000   5.830    0.000000  17.490   0.000
pair_coeff          5      12       0.200000   5.920    0.000000  17.760   0.000
pair_coeff          5      13       0.200000   5.830    0.000000  17.490   0.000
pair_coeff          5      14       0.200000   5.920    0.000000  17.760   0.000
pair_coeff          5      15       0.200000   5.520    0.000000  16.560   0.000
pair_coeff          5      16       0.200000   5.330    0.000000  15.990   0.000
pair_coeff          5      17       0.200000   5.550    0.000000  16.650   0.000
pair_coeff          5      18       0.200000   6.130    0.000000  18.390   0.000
pair_coeff          5      19       0.200000   5.970    0.000000  17.910   0.000
pair_coeff          5      20       0.200000   5.670    0.000000  17.010   0.000
pair_coeff          6       6       0.200000   5.920    0.000000  17.760  35.000
pair_coeff          6       7       0.200000   5.970    0.000000  17.910   0.000
pair_coeff          6       8       0.200000   5.210    0.000000  15.630   0.000
pair_coeff          6       9       0.200000   6.000    0.000000  18.000  35.000
pair_coeff          6      10       0.200000   6.050    0.000000  18.150   0.000
pair_coeff          6      11       0.200000   6.050    0.000000  18.150   0.000
pair_coeff          6      12       0.200000   6.140    0.000000  18.420  35.000
pair_coeff          6      13       0.200000   6.050    0.000000  18.150   0.000
pair_coeff          6      14       0.200000   6.140    0.000000  18.420   0.000
pair_coeff          6      15       0.200000   5.740    0.000000  17.220   0.000
pair_coeff          6      16       0.200000   5.550    0.000000  16.650   0.000
pair_coeff          6      17       0.200000   5.770    0.000000  17.310   0.000
pair_coeff          6      18       0.200000   6.350    0.000000  19.050   0.000
pair_coeff          6      19       0.200000   6.190    0.000000  18.570   0.000
pair_coeff          6      20       0.200000   5.890    0.000000  17.670   0.000
pair_coeff          7       7       0.200000   6.020    0.000000  18.060   0.000
pair_coeff          7       8       0.200000   5.260    0.000000  15.780   0.000
pair_coeff          7       9       0.200000   6.050    0.000000  18.150   0.000
pair_coeff          7      10       0.200000   6.100    0.000000  18.300   0.000
pair_coeff          7      11       0.200000   6.100    0.000000  18.300   0.000
pair_coeff          7      12       0.200000   6.190    0.000000  18.570   0.000
pair_coeff          7      13       0.200000   6.100    0.000000  18.300   0.000
pair_coeff          7      14       0.200000   6.190    0.000000  18.570   0.000
pair_coeff          7      15       0.200000   5.790    0.000000  17.370   0.000
pair_coeff          7      16       0.200000   5.600    0.000000  16.800   0.000
pair_coeff          7      17       0.200000   5.820    0.000000  17.460   0.000
pair_coeff          7      18       0.200000   6.400    0.000000  19.200   0.000
pair_coeff          7      19       0.200000   6.240    0.000000  18.720   0.000
pair_coeff          7      20       0.200000   5.940    0.000000  17.820   0.000
pair_coeff          8       8       0.200000   4.500    0.000000  13.500   0.000
pair_coeff          8       9       0.200000   5.290    0.000000  15.870   0.000
pair_coeff          8      10       0.200000   5.340    0.000000  16.020   0.000
pair_coeff          8      11       0.200000   5.340    0.000000  16.020   0.000
pair_coeff          8      12       0.200000   5.430    0.000000  16.290   0.000
pair_coeff          8      13       0.200000   5.340    0.000000  16.020   0.000
pair_coeff          8      14       0.200000   5.430    0.000000  16.290   0.000
pair_coeff          8      15       0.200000   5.030    0.000000  15.090   0.000
pair_coeff          8      16       0.200000   4.840    0.000000  14.520   0.000
pair_coeff          8      17       0.200000   5.060    0.000000  15.180   0.000
pair_coeff          8      18       0.200000   5.640    0.000000  16.920   0.000
pair_coeff          8      19       0.200000   5.480    0.000000  16.440   0.000
pair_coeff          8      20       0.200000   5.180    0.000000  15.540   0.000
pair_coeff          9       9       0.200000   6.080    0.000000  18.240  35.000
pair_coeff          9      10       0.200000   6.130    0.000000  18.390   0.000
pair_coeff          9      11       0.200000   6.130    0.000000  18.390   0.000
pair_coeff          9      12       0.200000   6.220    0.000000  18.660  35.000
pair_coeff          9      13       0.200000   6.130    0.000000  18.390   0.000
pair_coeff          9      14       0.200000   6.220    0.000000  18.660   0.000
pair_coeff          9      15       0.200000   5.820    0.000000  17.460   0.000
pair_coeff          9      16       0.200000   5.630    0.000000  16.890   0.000
pair_coeff          9      17       0.200000   5.850    0.000000  17.550   0.000
pair_coeff          9      18       0.200000   6.430    0.000000  19.290   0.000
pair_coeff          9      19       0.200000   6.270    0.000000  18.810   0.000
pair_coeff          9      20       0.200000   5.970    0.000000  17.910   0.000
pair_coeff         10      10       0.200000   6.180    0.000000  18.540   0.000
pair_coeff         10      11       0.200000   6.180    0.000000  18.540   0.000
pair_coeff         10      12       0.200000   6.270    0.000000  18.810   0.000
pair_coeff         10      13       0.200000   6.180    0.000000  18.540   0.000
pair_coeff         10      14       0.200000   6.270    0.000000  18.810   0.000
pair_coeff         10      15       0.200000   5.870    0.000000  17.610   0.000
pair_coeff         10      16       0.200000   5.680    0.000000  17.040   0.000
pair_coeff         10      17       0.200000   5.900    0.000000  17.700   0.000
pair_coeff         10      18       0.200000   6.480    0.000000  19.440   0.000
pair_coeff         10      19       0.200000   6.320    0.000000  18.960   0.000
pair_coeff         10      20       0.200000   6.020    0.000000  18.060   0.000
pair_coeff         11      11       0.200000   6.180    0.000000  18.540   0.000
pair_coeff         11      12       0.200000   6.270    0.000000  18.810   0.000
pair_coeff         11      13       0.200000   6.180    0.000000  18.540   0.000
pair_coeff         11      14       0.200000   6.270    0.000000  18.810   0.000
pair_coeff         11      15       0.200000   5.870    0.000000  17.610   0.000
pair_coeff         11      16       0.200000   5.680    0.000000  17.040   0.000
pair_coeff         11      17       0.200000   5.900    0.000000  17.700   0.000
pair_coeff         11      18       0.200000   6.480    0.000000  19.440   0.000
pair_coeff         11      19       0.200000   6.320    0.000000  18.960   0.000
pair_coeff         11      20       0.200000   6.020    0.000000  18.060   0.000
pair_coeff         12      12       0.200000   6.360    0.000000  19.080  35.000
pair_coeff         12      13       0.200000   6.270    0.000000  18.810   0.000
pair_coeff         12      14       0.200000   6.360    0.000000  19.080   0.000
pair_coeff         12      15       0.200000   5.960    0.000000  17.880   0.000
pair_coeff         12      16       0.200000   5.770    0.000000  17.310   0.000
pair_coeff         12      17       0.200000   5.990    0.000000  17.970   0.000
pair_coeff         12      18       0.200000   6.570    0.000000  19.710   0.000
pair_coeff         12      19       0.200000   6.410    0.000000  19.230   0.000
pair_coeff         12      20       0.200000   6.110    0.000000  18.330   0.000
pair_coeff         13      13       0.200000   6.180    0.000000  18.540   0.000
pair_coeff         13      14       0.200000   6.270    0.000000  18.810   0.000
pair_coeff         13      15       0.200000   5.870    0.000000  17.610   0.000
pair_coeff         13      16       0.200000   5.680    0.000000  17.040   0.000
pair_coeff         13      17       0.200000   5.900    0.000000  17.700   0.000
pair_coeff         13      18       0.200000   6.480    0.000000  19.440   0.000
pair_coeff         13      19       0.200000   6.320    0.000000  18.960   0.000
pair_coeff         13      20       0.200000   6.020    0.000000  18.060   0.000
pair_coeff         14      14       0.200000   6.360    0.000000  19.080   0.000
pair_coeff         14      15       0.200000   5.960    0.000000  17.880   0.000
pair_coeff         14      16       0.200000   5.770    0.000000  17.310   0.000
pair_coeff         14      17       0.200000   5.990    0.000000  17.970   0.000
pair_coeff         14      18       0.200000   6.570    0.000000  19.710   0.000
pair_coeff         14      19       0.200000   6.410    0.000000  19.230   0.000
pair_coeff         14      20       0.200000   6.110    0.000000  18.330   0.000
pair_coeff         15      15       0.200000   5.560    0.000000  16.680   0.000
pair_coeff         15      16       0.200000   5.370    0.000000  16.110   0.000
pair_coeff         15      17       0.200000   5.590    0.000000  16.770   0.000
pair_coeff         15      18       0.200000   6.170    0.000000  18.510   0.000
pair_coeff         15      19       0.200000   6.010    0.000000  18.030   0.000
pair_coeff         15      20       0.200000   5.710    0.000000  17.130   0.000
pair_coeff         16      16       0.200000   5.180    0.000000  15.540   0.000
pair_coeff         16      17       0.200000   5.400    0.000000  16.200   0.000
pair_coeff         16      18       0.200000   5.980    0.000000  17.940   0.000
pair_coeff         16      19       0.200000   5.820    0.000000  17.460   0.000
pair_coeff         16      20       0.200000   5.520    0.000000  16.560   0.000
pair_coeff         17      17       0.200000   5.620    0.000000  16.860   0.000
pair_coeff         17      18       0.200000   6.200    0.000000  18.600   0.000
pair_coeff         17      19       0.200000   6.040    0.000000  18.120   0.000
pair_coeff         17      20       0.200000   5.740    0.000000  17.220   0.000
pair_coeff         18      18       0.200000   6.780    0.000000  20.340   0.000
pair_coeff         18      19       0.200000   6.620    0.000000  19.860   0.000
pair_coeff         18      20       0.200000   6.320    0.000000  18.960   0.000
pair_coeff         19      19       0.200000   6.460    0.000000  19.380   0.000
pair_coeff         19      20       0.200000   6.160    0.000000  18.480   0.000
pair_coeff         20      20       0.200000   5.860    0.000000  17.580   0.000


special_bonds fene
neighbor  3.5 multi
neigh_modify  every 10 delay 0

comm_style    tiled
timestep      20.0

velocity      all create 300 2053
fix           fxnve  all nve
fix           fxlange all langevin 300 300 10000 4106

compute rg all gyration

thermo        50000
thermo_style  custom step pe ke temp c_rg
thermo_modify flush yes

dump          VMD1 all xtc 50000 hps_traj.xtc
dump_modify   VMD1 unwrap yes
dump          new_dump all atom 50000 hps_traj.atom
run           2000000000
