units       real
dimension   3
boundary    p p p
atom_style  full

bond_style  harmonic
pair_style  ljlambda 0.145 0.0 35.0
dielectric  80.0

read_data   data.data

bond_coeff          1     9.600     3.8

pair_coeff          *       *       0.000000   0.000    0.000000   0.000   0.000
pair_coeff          1       1       0.200000   5.040    0.710964  15.120   0.000
pair_coeff          1       2       0.200000   5.800    0.355482  17.400   0.000
pair_coeff          1       3       0.200000   5.360    0.566138  16.080   0.000
pair_coeff          1       4       0.200000   5.310    0.539806  15.930   0.000
pair_coeff          1       5       0.200000   5.260    0.645134  15.780   0.000
pair_coeff          1       6       0.200000   5.480    0.579304  16.440   0.000
pair_coeff          1       7       0.200000   5.530    0.605636  16.590   0.000
pair_coeff          1       8       0.200000   4.770    0.671466  14.310   0.000
pair_coeff          1       9       0.200000   5.560    0.605636  16.680   0.000
pair_coeff          1      10       0.200000   5.610    0.829458  16.830   0.000
pair_coeff          1      11       0.200000   5.610    0.829458  16.830   0.000
pair_coeff          1      12       0.200000   5.700    0.605636  17.100   0.000
pair_coeff          1      13       0.200000   5.610    0.763628  16.830   0.000
pair_coeff          1      14       0.200000   5.700    0.842624  17.100   0.000
pair_coeff          1      15       0.200000   5.300    0.842624  15.900   0.000
pair_coeff          1      16       0.200000   5.110    0.645134  15.330   0.000
pair_coeff          1      17       0.200000   5.330    0.684632  15.990   0.000
pair_coeff          1      18       0.200000   5.910    0.816292  17.730   0.000
pair_coeff          1      19       0.200000   5.750    0.776794  17.250   0.000
pair_coeff          1      20       0.200000   5.450    0.789960  16.350   0.000
pair_coeff          2       2       0.200000   6.560    0.000000  19.680  35.000
pair_coeff          2       3       0.200000   6.120    0.210656  18.360   0.000
pair_coeff          2       4       0.200000   6.070    0.184324  18.210  35.000
pair_coeff          2       5       0.200000   6.020    0.289652  18.060   0.000
pair_coeff          2       6       0.200000   6.240    0.223822  18.720  35.000
pair_coeff          2       7       0.200000   6.290    0.250154  18.870   0.000
pair_coeff          2       8       0.200000   5.530    0.315984  16.590   0.000
pair_coeff          2       9       0.200000   6.320    0.250154  18.960  35.000
pair_coeff          2      10       0.200000   6.370    0.473976  19.110   0.000
pair_coeff          2      11       0.200000   6.370    0.473976  19.110   0.000
pair_coeff          2      12       0.200000   6.460    0.250154  19.380  35.000
pair_coeff          2      13       0.200000   6.370    0.408146  19.110   0.000
pair_coeff          2      14       0.200000   6.460    0.487142  19.380   0.000
pair_coeff          2      15       0.200000   6.060    0.487142  18.180   0.000
pair_coeff          2      16       0.200000   5.870    0.289652  17.610   0.000
pair_coeff          2      17       0.200000   6.090    0.329150  18.270   0.000
pair_coeff          2      18       0.200000   6.670    0.460810  20.010   0.000
pair_coeff          2      19       0.200000   6.510    0.421312  19.530   0.000
pair_coeff          2      20       0.200000   6.210    0.434478  18.630   0.000
pair_coeff          3       3       0.200000   5.680    0.421312  17.040   0.000
pair_coeff          3       4       0.200000   5.630    0.394980  16.890   0.000
pair_coeff          3       5       0.200000   5.580    0.500308  16.740   0.000
pair_coeff          3       6       0.200000   5.800    0.434478  17.400   0.000
pair_coeff          3       7       0.200000   5.850    0.460810  17.550   0.000
pair_coeff          3       8       0.200000   5.090    0.526640  15.270   0.000
pair_coeff          3       9       0.200000   5.880    0.460810  17.640   0.000
pair_coeff          3      10       0.200000   5.930    0.684632  17.790   0.000
pair_coeff          3      11       0.200000   5.930    0.684632  17.790   0.000
pair_coeff          3      12       0.200000   6.020    0.460810  18.060   0.000
pair_coeff          3      13       0.200000   5.930    0.618802  17.790   0.000
pair_coeff          3      14       0.200000   6.020    0.697798  18.060   0.000
pair_coeff          3      15       0.200000   5.620    0.697798  16.860   0.000
pair_coeff          3      16       0.200000   5.430    0.500308  16.290   0.000
pair_coeff          3      17       0.200000   5.650    0.539806  16.950   0.000
pair_coeff          3      18       0.200000   6.230    0.671466  18.690   0.000
pair_coeff          3      19       0.200000   6.070    0.631968  18.210   0.000
pair_coeff          3      20       0.200000   5.770    0.645134  17.310   0.000
pair_coeff          4       4       0.200000   5.580    0.368648  16.740  35.000
pair_coeff          4       5       0.200000   5.530    0.473976  16.590   0.000
pair_coeff          4       6       0.200000   5.750    0.408146  17.250  35.000
pair_coeff          4       7       0.200000   5.800    0.434478  17.400   0.000
pair_coeff          4       8       0.200000   5.040    0.500308  15.120   0.000
pair_coeff          4       9       0.200000   5.830    0.434478  17.490  35.000
pair_coeff          4      10       0.200000   5.880    0.658300  17.640   0.000
pair_coeff          4      11       0.200000   5.880    0.658300  17.640   0.000
pair_coeff          4      12       0.200000   5.970    0.434478  17.910  35.000
pair_coeff          4      13       0.200000   5.880    0.592470  17.640   0.000
pair_coeff          4      14       0.200000   5.970    0.671466  17.910   0.000
pair_coeff          4      15       0.200000   5.570    0.671466  16.710   0.000
pair_coeff          4      16       0.200000   5.380    0.473976  16.140   0.000
pair_coeff          4      17       0.200000   5.600    0.513474  16.800   0.000
pair_coeff          4      18       0.200000   6.180    0.645134  18.540   0.000
pair_coeff          4      19       0.200000   6.020    0.605636  18.060   0.000
pair_coeff          4      20       0.200000   5.720    0.618802  17.160   0.000
pair_coeff          5       5       0.200000   5.480    0.579304  16.440   0.000
pair_coeff          5       6       0.200000   5.700    0.513474  17.100   0.000
pair_coeff          5       7       0.200000   5.750    0.539807  17.250   0.000
pair_coeff          5       8       0.200000   4.990    0.605636  14.970   0.000
pair_coeff          5       9       0.200000   5.780    0.539807  17.340   0.000
pair_coeff          5      10       0.200000   5.830    0.763628  17.490   0.000
pair_coeff          5      11       0.200000   5.830    0.763628  17.490   0.000
pair_coeff          5      12       0.200000   5.920    0.539807  17.760   0.000
pair_coeff          5      13       0.200000   5.830    0.697798  17.490   0.000
pair_coeff          5      14       0.200000   5.920    0.776794  17.760   0.000
pair_coeff          5      15       0.200000   5.520    0.776794  16.560   0.000
pair_coeff          5      16       0.200000   5.330    0.579304  15.990   0.000
pair_coeff          5      17       0.200000   5.550    0.618802  16.650   0.000
pair_coeff          5      18       0.200000   6.130    0.750462  18.390   0.000
pair_coeff          5      19       0.200000   5.970    0.710964  17.910   0.000
pair_coeff          5      20       0.200000   5.670    0.724130  17.010   0.000
pair_coeff          6       6       0.200000   5.920    0.447644  17.760  35.000
pair_coeff          6       7       0.200000   5.970    0.473976  17.910   0.000
pair_coeff          6       8       0.200000   5.210    0.539806  15.630   0.000
pair_coeff          6       9       0.200000   6.000    0.473976  18.000  35.000
pair_coeff          6      10       0.200000   6.050    0.697798  18.150   0.000
pair_coeff          6      11       0.200000   6.050    0.697798  18.150   0.000
pair_coeff          6      12       0.200000   6.140    0.473976  18.420  35.000
pair_coeff          6      13       0.200000   6.050    0.631968  18.150   0.000
pair_coeff          6      14       0.200000   6.140    0.710964  18.420   0.000
pair_coeff          6      15       0.200000   5.740    0.710964  17.220   0.000
pair_coeff          6      16       0.200000   5.550    0.513474  16.650   0.000
pair_coeff          6      17       0.200000   5.770    0.552972  17.310   0.000
pair_coeff          6      18       0.200000   6.350    0.684632  19.050   0.000
pair_coeff          6      19       0.200000   6.190    0.645134  18.570   0.000
pair_coeff          6      20       0.200000   5.890    0.658300  17.670   0.000
pair_coeff          7       7       0.200000   6.020    0.500309  18.060   0.000
pair_coeff          7       8       0.200000   5.260    0.566138  15.780   0.000
pair_coeff          7       9       0.200000   6.050    0.500309  18.150   0.000
pair_coeff          7      10       0.200000   6.100    0.724130  18.300   0.000
pair_coeff          7      11       0.200000   6.100    0.724130  18.300   0.000
pair_coeff          7      12       0.200000   6.190    0.500309  18.570   0.000
pair_coeff          7      13       0.200000   6.100    0.658300  18.300   0.000
pair_coeff          7      14       0.200000   6.190    0.737296  18.570   0.000
pair_coeff          7      15       0.200000   5.790    0.737296  17.370   0.000
pair_coeff          7      16       0.200000   5.600    0.539807  16.800   0.000
pair_coeff          7      17       0.200000   5.820    0.579304  17.460   0.000
pair_coeff          7      18       0.200000   6.400    0.710964  19.200   0.000
pair_coeff          7      19       0.200000   6.240    0.671466  18.720   0.000
pair_coeff          7      20       0.200000   5.940    0.684632  17.820   0.000
pair_coeff          8       8       0.200000   4.500    0.631968  13.500   0.000
pair_coeff          8       9       0.200000   5.290    0.566138  15.870   0.000
pair_coeff          8      10       0.200000   5.340    0.789960  16.020   0.000
pair_coeff          8      11       0.200000   5.340    0.789960  16.020   0.000
pair_coeff          8      12       0.200000   5.430    0.566138  16.290   0.000
pair_coeff          8      13       0.200000   5.340    0.724130  16.020   0.000
pair_coeff          8      14       0.200000   5.430    0.803126  16.290   0.000
pair_coeff          8      15       0.200000   5.030    0.803126  15.090   0.000
pair_coeff          8      16       0.200000   4.840    0.605636  14.520   0.000
pair_coeff          8      17       0.200000   5.060    0.645134  15.180   0.000
pair_coeff          8      18       0.200000   5.640    0.776794  16.920   0.000
pair_coeff          8      19       0.200000   5.480    0.737296  16.440   0.000
pair_coeff          8      20       0.200000   5.180    0.750462  15.540   0.000
pair_coeff          9       9       0.200000   6.080    0.500309  18.240  35.000
pair_coeff          9      10       0.200000   6.130    0.724130  18.390   0.000
pair_coeff          9      11       0.200000   6.130    0.724130  18.390   0.000
pair_coeff          9      12       0.200000   6.220    0.500309  18.660  35.000
pair_coeff          9      13       0.200000   6.130    0.658300  18.390   0.000
pair_coeff          9      14       0.200000   6.220    0.737296  18.660   0.000
pair_coeff          9      15       0.200000   5.820    0.737296  17.460   0.000
pair_coeff          9      16       0.200000   5.630    0.539807  16.890   0.000
pair_coeff          9      17       0.200000   5.850    0.579304  17.550   0.000
pair_coeff          9      18       0.200000   6.430    0.710964  19.290   0.000
pair_coeff          9      19       0.200000   6.270    0.671466  18.810   0.000
pair_coeff          9      20       0.200000   5.970    0.684632  17.910   0.000
pair_coeff         10      10       0.200000   6.180    0.947952  18.540   0.000
pair_coeff         10      11       0.200000   6.180    0.947952  18.540   0.000
pair_coeff         10      12       0.200000   6.270    0.724130  18.810   0.000
pair_coeff         10      13       0.200000   6.180    0.882122  18.540   0.000
pair_coeff         10      14       0.200000   6.270    0.961118  18.810   0.000
pair_coeff         10      15       0.200000   5.870    0.961118  17.610   0.000
pair_coeff         10      16       0.200000   5.680    0.763628  17.040   0.000
pair_coeff         10      17       0.200000   5.900    0.803126  17.700   0.000
pair_coeff         10      18       0.200000   6.480    0.934786  19.440   0.000
pair_coeff         10      19       0.200000   6.320    0.895288  18.960   0.000
pair_coeff         10      20       0.200000   6.020    0.908454  18.060   0.000
pair_coeff         11      11       0.200000   6.180    0.947952  18.540   0.000
pair_coeff         11      12       0.200000   6.270    0.724130  18.810   0.000
pair_coeff         11      13       0.200000   6.180    0.882122  18.540   0.000
pair_coeff         11      14       0.200000   6.270    0.961118  18.810   0.000
pair_coeff         11      15       0.200000   5.870    0.961118  17.610   0.000
pair_coeff         11      16       0.200000   5.680    0.763628  17.040   0.000
pair_coeff         11      17       0.200000   5.900    0.803126  17.700   0.000
pair_coeff         11      18       0.200000   6.480    0.934786  19.440   0.000
pair_coeff         11      19       0.200000   6.320    0.895288  18.960   0.000
pair_coeff         11      20       0.200000   6.020    0.908454  18.060   0.000
pair_coeff         12      12       0.200000   6.360    0.500309  19.080  35.000
pair_coeff         12      13       0.200000   6.270    0.658300  18.810   0.000
pair_coeff         12      14       0.200000   6.360    0.737296  19.080   0.000
pair_coeff         12      15       0.200000   5.960    0.737296  17.880   0.000
pair_coeff         12      16       0.200000   5.770    0.539807  17.310   0.000
pair_coeff         12      17       0.200000   5.990    0.579304  17.970   0.000
pair_coeff         12      18       0.200000   6.570    0.710964  19.710   0.000
pair_coeff         12      19       0.200000   6.410    0.671466  19.230   0.000
pair_coeff         12      20       0.200000   6.110    0.684632  18.330   0.000
pair_coeff         13      13       0.200000   6.180    0.816292  18.540   0.000
pair_coeff         13      14       0.200000   6.270    0.895288  18.810   0.000
pair_coeff         13      15       0.200000   5.870    0.895288  17.610   0.000
pair_coeff         13      16       0.200000   5.680    0.697798  17.040   0.000
pair_coeff         13      17       0.200000   5.900    0.737296  17.700   0.000
pair_coeff         13      18       0.200000   6.480    0.868956  19.440   0.000
pair_coeff         13      19       0.200000   6.320    0.829458  18.960   0.000
pair_coeff         13      20       0.200000   6.020    0.842624  18.060   0.000
pair_coeff         14      14       0.200000   6.360    0.974284  19.080   0.000
pair_coeff         14      15       0.200000   5.960    0.974284  17.880   0.000
pair_coeff         14      16       0.200000   5.770    0.776794  17.310   0.000
pair_coeff         14      17       0.200000   5.990    0.816292  17.970   0.000
pair_coeff         14      18       0.200000   6.570    0.947952  19.710   0.000
pair_coeff         14      19       0.200000   6.410    0.908454  19.230   0.000
pair_coeff         14      20       0.200000   6.110    0.921620  18.330   0.000
pair_coeff         15      15       0.200000   5.560    0.974284  16.680   0.000
pair_coeff         15      16       0.200000   5.370    0.776794  16.110   0.000
pair_coeff         15      17       0.200000   5.590    0.816292  16.770   0.000
pair_coeff         15      18       0.200000   6.170    0.947952  18.510   0.000
pair_coeff         15      19       0.200000   6.010    0.908454  18.030   0.000
pair_coeff         15      20       0.200000   5.710    0.921620  17.130   0.000
pair_coeff         16      16       0.200000   5.180    0.579304  15.540   0.000
pair_coeff         16      17       0.200000   5.400    0.618802  16.200   0.000
pair_coeff         16      18       0.200000   5.980    0.750462  17.940   0.000
pair_coeff         16      19       0.200000   5.820    0.710964  17.460   0.000
pair_coeff         16      20       0.200000   5.520    0.724130  16.560   0.000
pair_coeff         17      17       0.200000   5.620    0.658300  16.860   0.000
pair_coeff         17      18       0.200000   6.200    0.789960  18.600   0.000
pair_coeff         17      19       0.200000   6.040    0.750462  18.120   0.000
pair_coeff         17      20       0.200000   5.740    0.763628  17.220   0.000
pair_coeff         18      18       0.200000   6.780    0.921620  20.340   0.000
pair_coeff         18      19       0.200000   6.620    0.882122  19.860   0.000
pair_coeff         18      20       0.200000   6.320    0.895288  18.960   0.000
pair_coeff         19      19       0.200000   6.460    0.842624  19.380   0.000
pair_coeff         19      20       0.200000   6.160    0.855790  18.480   0.000
pair_coeff         20      20       0.200000   5.860    0.868956  17.580   0.000


special_bonds fene
neighbor  3.5 multi
neigh_modify  every 10 delay 0

comm_style    tiled
timestep      10.0

velocity      all create 300 494211
fix           fxnve  all nve
fix           fxlange all langevin 300 300 10000 451618

compute rg all gyration

thermo        500
thermo_style  custom step pe ke temp c_rg
thermo_modify flush yes

#rerun           atom_traj.lammpstrj dump x y z
rerun           atom_traj.lammpstrj last 1000000 dump x y z
